n_res = 4;
rcap = [26, 21, 162, 158];
rtype = [1, 1, 2, 2];
n_tasks = 30;
modes = [ {1, 2, 3}, {4, 5, 6}, {7, 8, 9}, {10, 11, 12}, {13, 14, 15}, {16, 17, 18}, {19, 20, 21}, {22, 23, 24}, {25, 26, 27}, {28, 29, 30}, {31, 32, 33}, {34, 35, 36}, {37, 38, 39}, {40, 41, 42}, {43, 44, 45}, {46, 47, 48}, {49, 50, 51}, {52, 53, 54}, {55, 56, 57}, {58, 59, 60}, {61, 62, 63}, {64, 65, 66}, {67, 68, 69}, {70, 71, 72}, {73, 74, 75}, {76, 77, 78}, {79, 80, 81}, {82, 83, 84}, {85, 86, 87}, {88, 89, 90} ];
succ = [ {6, 7, 13}, {4, 16, 21}, {5, 11, 20}, {8, 9, 27}, {10, 15}, {17}, {17, 23}, {14, 19, 24}, {12, 18}, {19, 21}, {12, 28, 29}, {14}, {20, 21}, {26}, {22, 27, 29}, {18, 22, 24}, {19, 25}, {26}, {30}, {25}, {23, 27}, {25}, {24, 28, 29}, {30}, {26}, {30}, {28}, {}, {}, {} ];
n_opt = 90;
dur = [4, 7, 10, 6, 7, 8, 3, 4, 8, 1, 2, 7, 5, 9, 10, 2, 7, 10, 3, 5, 6, 1, 2, 7, 1, 6, 8, 6, 7, 10, 1, 3, 3, 3, 4, 8, 1, 3, 8, 4, 6, 9, 4, 9, 9, 4, 4, 10, 2, 3, 4, 3, 3, 7, 1, 4, 7, 1, 3, 10, 5, 7, 9, 3, 6, 8, 5, 8, 9, 6, 8, 10, 5, 8, 10, 1, 5, 6, 1, 4, 8, 2, 2, 4, 1, 2, 6, 4, 9, 10];
rreq = [|  0,  5,  0,  0,  0,  7,  0,  0,  4,  0,  0,  3,  0,  0,  3, 10,  0,  0,  0,  7,  0,  0,  3,  0,  3,  3,  0,  8,  6,  0,  9,  8,  0,  7,  7,  0,  0,  2,  0,  5,  0,  0,  9,  0,  8, 10,  0, 10,  0,  0,  5,  0,  4,  0,  0,  3,  0,  4,  3,  0,  2,  0,  2,  5,  0,  5,  0,  8,  0,  0,  0,  0,  5,  4,  4,  8,  8,  8,  0,  8,  0,  0,  8,  6,  5,  4,  4,  0,  0,  9
        |  3,  0,  3,  5,  4,  0,  5,  3,  0,  2,  2,  0,  8,  8,  0,  0,  7,  4,  3,  0,  3,  5,  0,  3,  0,  0,  4,  0,  0,  7,  0,  0,  5,  0,  0,  8,  7,  0,  7,  0,  4,  3,  0, 10,  0,  0,  4,  0, 10,  8,  0,  7,  0,  7,  3,  0,  2,  0,  0,  3,  0,  5,  0,  0,  6,  0,  6,  0,  6,  9,  8,  7,  0,  0,  0,  0,  0,  0, 10,  0,  9,  5,  0,  0,  0,  0,  0,  6,  3,  0
        | 10, 10, 10,  3,  3,  2,  8,  7,  6,  7,  6,  5, 10, 10,  9,  7,  4,  2,  8,  7,  4,  6,  5,  2,  7,  6,  3,  8,  8,  5,  7,  4,  3,  5,  3,  3,  9,  9,  8,  2,  2,  2,  5,  5,  4,  7,  7,  5,  9,  5,  2,  5,  5,  4,  4,  4,  1,  4,  4,  3, 10, 10, 10,  6,  5,  4,  9,  7,  4,  9,  5,  4,  9,  8,  7,  4,  4,  3,  8,  7,  6,  9,  9,  9,  9,  8,  8,  7,  7,  7
        |  5,  4,  3,  6,  6,  5,  6,  4,  3,  9,  9,  9,  9,  7,  6, 10,  9,  7,  8,  8,  3,  9,  8,  6,  9,  6,  5,  7,  7,  4,  7,  2,  4,  9,  8,  8,  6,  6,  5,  5,  4,  2,  7,  7,  6,  3,  3,  2,  4,  3,  2,  5,  4,  4,  5,  3,  2,  8,  6,  2,  6,  6,  5,  7,  5,  2,  7,  6,  4,  9,  9,  7,  9,  9,  8,  8,  6,  4,  9,  9,  9,  1,  1,  1,  7,  7,  5, 10, 10, 10 |];
